100 8
584 726
597 751
34 387
335 739
527 421
145 638
269 630
453 558
898 97
738 440
13 555
157 470
74 408
524 752
225 744
292 924
636 792
358 664
557 862
317 644
744 707
693 350
702 744
154 651
286 917
857 178
441 915
648 429
699 686
497 821
379 645
683 404
504 914
427 753
143 259
703 453
158 385
308 695
608 603
269 809
388 554
139 665
510 790
39 454
107 709
570 664
496 725
337 823
154 412
23 518
274 573
505 163
716 446
396 830
578 833
272 868
119 768
652 394
564 247
516 849
711 396
378 540
364 597
367 798
304 938
566 189
630 766
646 689
581 109
345 917
36 704
334 658
425 696
579 216
543 414
720 350
660 615
885 123
674 279
650 877
822 116
631 52
459 763
400 742
599 265
213 515
594 250
625 786
674 127
264 643
149 632
121 496
842 215
503 725
546 353
670 636
645 768
196 528
651 612
352 783
